letting initialStacks = [12, 21, 15, 26, 27, 4, 37, 29, 50, 42, 13, 43, 48, 36, 22, 25, 40, 24, 19, 5, 9, 49, 6, 39, 11, 38, 45, 14, 33, 20, 30, 18, 31, 28, 46, 23, 17, 7, 1, 41, 8, 47, 10, 51, 35, 2, 44, 34, 16, 3, 32]
